% seed = 6062145

mint = 32;
% maxt = 102;

nActs = 22;
dur = [0,5,1,4,3,4,7,1,10,2,10,5,1,5,5,10,3,6,4,7,9,0];

nSkills = 4;
sreq = [| 0,0,0,0,
	| 2,3,2,1,
	| 2,0,1,2,
	| 0,2,0,1,
	| 0,1,1,2,
	| 3,2,3,1,
	| 2,0,3,0,
	| 1,2,1,2,
	| 1,3,1,2,
	| 3,0,0,3,
	| 3,0,1,2,
	| 3,3,1,2,
	| 0,1,2,1,
	| 1,3,1,0,
	| 2,1,2,2,
	| 2,0,2,0,
	| 2,3,1,1,
	| 3,1,0,0,
	| 3,2,1,2,
	| 3,1,2,3,
	| 0,2,0,2,
	| 0,0,0,0, |];

nResources = 10;
mastery = [| true,true,false,true,
	| false,false,false,true,
	| false,true,false,false,
	| false,true,true,true,
	| true,true,false,true,
	| false,false,false,true,
	| true,false,true,true,
	| false,true,false,true,
	| true,false,true,true,
	| true,true,false,true, |];

nPrecs = 31;
pred = [1,1,1,2,2,3,3,4,4,5,6,6,7,8,8,8,9,10,11,11,12,12,13,14,15,16,17,18,19,20,21];
succ = [2,3,4,13,5,13,6,7,8,17,18,15,10,9,11,21,16,12,17,16,20,14,19,19,20,20,18,19,22,22,22];

nUnrels = 125;
unpred = [2,2,2,2,2,2,2,2,2,2,2,2,2,2,3,3,3,3,3,3,3,3,3,3,3,3,4,4,4,4,5,5,5,5,5,5,5,5,5,5,5,5,5,6,6,6,6,6,6,6,6,6,6,6,7,7,7,7,7,7,7,7,7,8,8,8,8,8,9,9,9,9,9,9,9,9,9,9,10,10,10,10,10,10,10,11,11,11,11,11,12,12,12,12,12,12,13,13,13,13,13,13,13,14,14,14,14,14,14,15,15,15,15,15,16,16,16,16,17,17,18,18,19,19,20];
unsucc = [3,4,6,7,8,9,10,11,12,14,15,16,20,21,4,5,7,8,9,10,11,12,14,16,17,21,5,6,13,15,6,7,8,9,10,11,12,13,14,15,16,20,21,7,8,9,10,11,12,13,14,16,17,21,8,9,11,13,15,16,17,18,21,10,12,13,14,15,10,11,12,13,14,15,17,18,19,21,11,13,15,16,17,18,21,12,13,14,15,21,13,15,16,17,18,21,14,15,16,17,18,20,21,15,16,17,18,20,21,16,17,18,19,21,17,18,19,21,20,21,20,21,20,21,21];

USEFUL_RES = [{},
	{1,2,3,4,5,6,7,8,9,10},
	{1,2,4,5,6,7,8,9,10},
	{1,2,3,4,5,6,7,8,9,10},
	{1,2,3,4,5,6,7,8,9,10},
	{1,2,3,4,5,6,7,8,9,10},
	{1,4,5,7,9,10},
	{1,2,3,4,5,6,7,8,9,10},
	{1,2,3,4,5,6,7,8,9,10},
	{1,2,4,5,6,7,8,9,10},
	{1,2,4,5,6,7,8,9,10},
	{1,2,3,4,5,6,7,8,9,10},
	{1,2,3,4,5,6,7,8,9,10},
	{1,3,4,5,7,8,9,10},
	{1,2,3,4,5,6,7,8,9,10},
	{1,4,5,7,9,10},
	{1,2,3,4,5,6,7,8,9,10},
	{1,3,4,5,7,8,9,10},
	{1,2,3,4,5,6,7,8,9,10},
	{1,2,3,4,5,6,7,8,9,10},
	{1,2,3,4,5,6,7,8,9,10},
	{}];

POTENTIAL_ACT = [{2,3,4,5,6,7,8,9,10,11,12,13,14,15,16,17,18,19,20,21},
	{2,3,4,5,6,8,9,10,11,12,13,15,17,19,20,21},
	{2,4,5,6,8,9,12,13,14,15,17,18,19,20,21},
	{2,3,4,5,6,7,8,9,10,11,12,13,14,15,16,17,18,19,20,21},
	{2,3,4,5,6,7,8,9,10,11,12,13,14,15,16,17,18,19,20,21},
	{2,3,4,5,6,8,9,10,11,12,13,15,17,19,20,21},
	{2,3,4,5,6,7,8,9,10,11,12,13,14,15,16,17,18,19,20,21},
	{2,3,4,5,6,8,9,10,11,12,13,14,15,17,18,19,20,21},
	{2,3,4,5,6,7,8,9,10,11,12,13,14,15,16,17,18,19,20,21},
	{2,3,4,5,6,7,8,9,10,11,12,13,14,15,16,17,18,19,20,21}];
